nBusiness = 47;
nMeetings = 180;
nTables = 21;
nTotalSlots = 10;
nMorningSlots = 10;

requested = [|1, 10,3, 
|1, 22,3, 
|1, 26,3, 
|1, 33,3, 
|1, 34,3, 
|1, 37,3, 
|1, 38,3, 
|1, 42,3, 
|1, 45,3, 
|1, 46,3, 
|3, 4,3, 
|3, 11,3, 
|3, 12,3, 
|3, 23,3, 
|3, 35,3, 
|4, 7,3, 
|4, 16,3, 
|4, 29,3, 
|4, 30,3, 
|4, 32,3, 
|4, 42,3, 
|4, 43,3, 
|5, 10,3, 
|5, 13,3, 
|5, 14,3, 
|5, 21,3, 
|5, 25,3, 
|5, 32,3, 
|5, 36,3, 
|6, 17,3, 
|6, 18,3, 
|6, 28,3, 
|6, 37,3, 
|6, 41,3, 
|6, 43,3, 
|6, 45,3, 
|6, 46,3, 
|7, 11,3, 
|7, 14,3, 
|7, 20,3, 
|7, 47,3, 
|8, 17,3, 
|8, 18,3, 
|8, 19,3, 
|8, 25,3, 
|8, 28,3, 
|8, 32,3, 
|8, 36,3, 
|8, 42,3, 
|9, 14,3, 
|9, 19,3, 
|9, 23,3, 
|9, 33,3, 
|9, 45,3, 
|10, 11,3, 
|10, 29,3, 
|10, 32,3, 
|10, 38,3, 
|10, 47,3, 
|11, 15,3, 
|11, 16,3, 
|11, 17,3, 
|11, 18,3, 
|11, 34,3, 
|11, 37,3, 
|11, 41,3, 
|12, 27,3, 
|12, 30,3, 
|12, 33,3, 
|12, 42,3, 
|13, 23,3, 
|13, 26,3, 
|13, 27,3, 
|13, 29,3, 
|13, 31,3, 
|13, 33,3, 
|13, 38,3, 
|13, 40,3, 
|13, 44,3, 
|14, 20,3, 
|14, 24,3, 
|14, 28,3, 
|14, 29,3, 
|14, 32,3, 
|14, 33,3, 
|14, 43,3, 
|15, 27,3, 
|15, 29,3, 
|15, 41,3, 
|16, 25,3, 
|16, 28,3, 
|16, 30,3, 
|16, 33,3, 
|16, 41,3, 
|16, 45,3, 
|16, 46,3, 
|17, 18,3, 
|17, 35,3, 
|17, 37,3, 
|17, 41,3, 
|17, 45,3, 
|17, 47,3, 
|18, 21,3, 
|18, 32,3, 
|18, 35,3, 
|18, 40,3, 
|18, 44,3, 
|18, 46,3, 
|19, 26,3, 
|19, 28,3, 
|19, 31,3, 
|19, 40,3, 
|19, 41,3, 
|19, 42,3, 
|19, 44,3, 
|20, 31,3, 
|20, 38,3, 
|20, 47,3, 
|21, 30,3, 
|21, 40,3, 
|21, 44,3, 
|21, 47,3, 
|22, 24,3, 
|22, 25,3, 
|22, 27,3, 
|22, 33,3, 
|22, 34,3, 
|22, 43,3, 
|22, 44,3, 
|22, 45,3, 
|23, 26,3, 
|23, 28,3, 
|23, 35,3, 
|23, 40,3, 
|23, 41,3, 
|23, 43,3, 
|23, 46,3, 
|24, 36,3, 
|24, 38,3, 
|24, 41,3, 
|24, 44,3, 
|25, 30,3, 
|25, 31,3, 
|25, 34,3, 
|25, 41,3, 
|26, 27,3, 
|26, 35,3, 
|26, 40,3, 
|26, 44,3, 
|26, 46,3, 
|27, 35,3, 
|27, 36,3, 
|27, 47,3, 
|28, 34,3, 
|28, 38,3, 
|28, 43,3, 
|28, 45,3, 
|29, 30,3, 
|29, 38,3, 
|30, 44,3, 
|30, 47,3, 
|31, 47,3, 
|32, 34,3, 
|32, 38,3, 
|32, 42,3, 
|32, 47,3, 
|33, 43,3, 
|34, 35,3, 
|34, 40,3, 
|34, 43,3, 
|35, 40,3, 
|35, 42,3, 
|35, 43,3, 
|36, 38,3, 
|36, 40,3, 
|36, 43,3, 
|36, 46,3, 
|40, 41,3, 
|44, 45,3, 
|44, 47,3, 
|];

meetingsxBusiness = [{1,2,3,4,5,6,7,8,9,10,11},
{1},
{1,12,13,14,15,16},
{1,12,17,18,19,20,21,22,23},
{1,24,25,26,27,28,29,30},
{1,31,32,33,34,35,36,37,38},
{1,17,39,40,41,42},
{1,43,44,45,46,47,48,49,50},
{1,51,52,53,54,55},
{1,2,24,56,57,58,59,60},
{1,13,39,56,61,62,63,64,65,66,67},
{1,14,68,69,70,71},
{1,25,72,73,74,75,76,77,78,79,80},
{1,26,40,51,81,82,83,84,85,86,87},
{1,61,88,89,90},
{1,18,62,91,92,93,94,95,96,97},
{1,31,43,63,98,99,100,101,102,103},
{1,32,44,64,98,104,105,106,107,108,109},
{1,45,52,110,111,112,113,114,115,116},
{1,41,81,117,118,119},
{1,27,104,120,121,122,123},
{1,3,124,125,126,127,128,129,130,131},
{1,15,53,72,132,133,134,135,136,137,138},
{1,82,124,139,140,141,142},
{1,28,46,91,125,143,144,145,146},
{1,4,73,110,132,147,148,149,150,151},
{1,68,74,88,126,147,152,153,154},
{1,33,47,83,92,111,133,155,156,157,158},
{1,19,57,75,84,89,159,160},
{1,20,69,93,120,143,159,161,162},
{1,76,112,117,144,163},
{1,21,29,48,58,85,105,164,165,166,167},
{1,5,54,70,77,86,94,127,168},
{1,6,65,128,145,155,164,169,170,171},
{1,16,99,106,134,148,152,169,172,173,174},
{1,30,49,139,153,175,176,177,178},
{1,7,34,66,100},
{1,8,59,78,118,140,156,160,165,175},
{1},
{1,79,107,113,121,135,149,170,172,176,179},
{1,35,67,90,95,101,114,136,141,146,179},
{1,9,22,50,71,115,166,173},
{1,23,36,87,129,137,157,168,171,174,177},
{1,80,108,116,122,130,142,150,161,180,181},
{1,10,37,55,96,102,131,158,180},
{1,11,38,97,109,138,151,178},
{1,42,60,103,119,123,154,162,163,167,181}];

nMeetingsBusiness = [10,0,5,8,7,8,5,8,5,7,10,5,10,10,4,9,9,10,9,5,6,9,10,6,8,9,8,10,7,8,5,10,8,9,10,8,4,9,0,10,10,7,10,10,8,7,10];

forbidden = [{0},
{0},
{0},
{0},
{0},
{0},
{0},
{0},
{0},
{0},
{0},
{0},
{0},
{0},
{0},
{0},
{0},
{0},
{0},
{0},
{0},
{0},
{0},
{0},
{0},
{0},
{0},
{0},
{0},
{0},
{0},
{0},
{0},
{0},
{0},
{0},
{0},
{0},
{0},
{0},
{0},
{0},
{0},
{0},
{0},
{0},
{0}];

fixed = [0,0,0,0,0,0,0,0,0,0,0,0,0,0,0,0,0,0,0,0,0,0,0,0,0,0,0,0,0,0,0,0,0,0,0,0,0,0,0,0,0,0,0,0,0,0,0,0,0,0,0,0,0,0,0,0,0,0,0,0,0,0,0,0,0,0,0,0,0,0,0,0,0,0,0,0,0,0,0,0,0,0,0,0,0,0,0,0,0,0,0,0,0,0,0,0,0,0,0,0,0,0,0,0,0,0,0,0,0,0,0,0,0,0,0,0,0,0,0,0,0,0,0,0,0,0,0,0,0,0,0,0,0,0,0,0,0,0,0,0,0,0,0,0,0,0,0,0,0,0,0,0,0,0,0,0,0,0,0,0,0,0,0,0,0,0,0,0,0,0,0,0,0,0,0,0,0,0,0,0];

precedences = [{},
{125},
{},
{},
{},
{7},
{},
{10,172},
{},
{},
{14},
{},
{},
{},
{98},
{},
{},
{20},
{},
{},
{17},
{},
{29},
{},
{},
{},
{},
{},
{},
{},
{},
{35},
{},
{30},
{136},
{},
{177},
{40},
{},
{},
{},
{},
{47},
{},
{},
{157},
{42},
{},
{},
{82},
{},
{},
{},
{50},
{56},
{18},
{},
{164},
{180},
{},
{55},
{},
{31},
{},
{6,66},
{},
{},
{},
{68},
{},
{},
{79},
{24},
{},
{111},
{},
{},
{},
{},
{118},
{},
{},
{},
{},
{39,69},
{},
{},
{60},
{34},
{},
{},
{96},
{61},
{},
{101},
{},
{100},
{},
{62},
{},
{},
{},
{120},
{},
{},
{103},
{},
{},
{3},
{},
{},
{},
{110},
{51},
{},
{},
{},
{},
{160},
{175},
{},
{161},
{},
{},
{126},
{},
{144},
{},
{},
{},
{},
{},
{171},
{132},
{},
{},
{135},
{29,123},
{},
{113},
{},
{},
{144},
{45},
{},
{72},
{},
{120},
{},
{},
{67},
{153},
{},
{},
{},
{},
{36,132},
{},
{139},
{79,92},
{},
{},
{},
{},
{164},
{165},
{35,126},
{169},
{},
{},
{},
{},
{},
{},
{},
{138},
{},
{},
{},
{179}];

